p cnf 7230 17
2050 4420 4442 4470 -4996 0
2048 4418 4434 4458 -4994 0
-2050 -4997 0
-2048 -4995 0
-4420 -4997 0
-4418 -4995 0
-4442 -4997 0
-4434 -4995 0
4998 4999 0
4406 -4999 0
-4406 -4998 0
4996 4997 0
4994 4995 0
-4470 -4997 0
-4458 -4995 0
4408 -5001 0
4992 4993 0
